1 -1 2 0
1 -1 3 0
1 4 -5 0
1 5 6 0
1 7 5 0
1 -8 -9 0
1 10 11 0
1 -12 -13 0
1 14 -15 0
1 6 16 0
1 6 -17 0
1 -6 -18 0
1 -6 -19 0
1 -20 -18 0
1 -21 22 0
1 -21 -4 0
1 23 24 0
1 -25 -14 0
1 -26 -23 0
1 27 28 0
1 27 26 0
1 13 -16 0
1 -24 -16 0
1 -24 -12 0
1 24 29 0
1 -30 31 0
1 -32 -33 0
1 -31 32 0
1 34 35 0
1 -34 -36 0
1 -37 -38 0
1 39 40 0
1 11 -41 0
1 42 -43 0
1 -42 -41 0
1 35 44 0
1 41 45 0
1 -46 45 0
1 -46 38 0
1 9 44 0
1 9 8 0
1 -9 -47 0
1 48 -44 0
1 48 47 0
1 -49 50 0
1 49 -20 0
1 -47 51 0
1 -47 -19 0
1 -44 42 0
1 18 14 0
1 18 -19 0
1 -19 -13 0
1 -29 52 0
1 29 -15 0
1 -53 -54 0
1 55 -56 0
1 -52 55 0
1 54 -8 0
1 54 57 0
1 -54 -58 0
1 -58 53 0
1 -58 19 0
1 -59 52 0
1 -59 -60 0
1 -59 61 0
1 59 -13 0
1 62 -15 0
1 -63 64 0
1 -63 -62 0
1 -15 -65 0
1 15 -17 0
1 -15 66 0
1 67 28 0
1 67 68 0
1 69 -70 0
1 -71 -17 0
1 71 28 0
1 71 -72 0
1 -70 73 0
1 -74 -69 0
1 75 -76 0
1 77 -78 0
1 77 79 0
1 -80 -81 0
1 -80 82 0
1 -83 -84 0
1 76 -85 0
1 76 -86 0
1 76 -87 0
1 78 -85 0
1 78 -86 0
1 -78 40 0
1 -84 88 0
1 84 89 0
1 -40 81 0
1 -90 -11 0
1 -86 91 0
1 -86 -37 0
1 86 -92 0
1 -85 88 0
1 82 93 0
1 -94 -36 0
1 -95 -85 0
1 95 -81 0
1 -95 96 0
1 36 -33 0
1 36 97 0
1 36 46 0
1 38 31 0
1 -38 97 0
1 -38 82 0
1 -98 -99 0
1 -98 100 0
1 98 33 0
1 101 -50 0
1 101 102 0
1 101 103 0
1 -91 104 0
1 97 -36 0
1 -103 -105 0
1 92 105 0
1 92 -106 0
1 -104 -100 0
1 45 -44 0
1 45 107 0
1 -108 -91 0
1 108 107 0
1 100 109 0
1 -107 110 0
1 99 37 0
1 111 45 0
1 112 -47 0
1 -112 -51 0
1 51 100 0
1 51 -113 0
1 110 109 0
1 -114 110 0
1 -115 -116 0
1 117 -118 0
1 -117 110 0
1 -118 119 0
1 -118 -120 0
1 -56 -121 0
1 122 61 0
1 -123 64 0
1 123 61 0
1 123 -115 0
1 124 125 0
1 -121 -123 0
1 -121 -124 0
1 126 -127 0
1 -128 -109 0
1 66 116 0
1 -129 -130 0
1 129 -72 0
1 130 131 0
1 -130 -132 0
1 -133 -134 0
1 -133 -130 0
1 133 -135 0
1 -134 73 0
1 134 66 0
1 57 123 0
1 -57 136 0
1 137 129 0
1 -137 -127 0
1 -137 -130 0
1 -137 138 0
1 -73 -139 0
1 -140 -141 0
1 -135 -142 0
1 -143 133 0
1 -141 -143 0
1 -144 -130 0
1 -132 -140 0
1 -145 -146 0
1 -145 132 0
1 -145 -135 0
1 147 -144 0
1 147 -148 0
1 147 -149 0
1 -147 150 0
1 151 142 0
1 -152 -153 0
1 153 -142 0
1 142 153 0
1 149 -154 0
1 155 156 0
1 157 -158 0
1 -157 -83 0
1 157 -159 0
1 160 -88 0
1 160 161 0
1 160 162 0
1 159 163 0
1 158 -157 0
1 -164 163 0
1 -88 165 0
1 88 -166 0
1 -167 -168 0
1 -166 -169 0
1 170 161 0
1 -170 168 0
1 171 170 0
1 -171 -172 0
1 -89 -173 0
1 -89 -95 0
1 173 -81 0
1 96 -174 0
1 102 175 0
1 -176 177 0
1 176 178 0
1 -165 179 0
1 -175 -89 0
1 -93 94 0
1 93 -174 0
1 -177 180 0
1 -177 181 0
1 -177 -94 0
1 -182 183 0
1 -183 176 0
1 -183 -174 0
1 183 -184 0
1 -87 93 0
1 -181 102 0
1 -181 -182 0
1 181 -183 0
1 -174 -177 0
1 174 -96 0
1 185 84 0
1 185 -186 0
1 105 91 0
1 105 -187 0
1 105 -92 0
1 -105 97 0
1 105 -106 0
1 106 99 0
1 106 87 0
1 -106 -188 0
1 189 -187 0
1 184 189 0
1 184 183 0
1 -187 94 0
1 -187 183 0
1 190 -191 0
1 192 -107 0
1 -192 184 0
1 -193 100 0
1 -193 117 0
1 -194 -195 0
1 120 196 0
1 197 -198 0
1 119 -117 0
1 119 199 0
1 -119 -200 0
1 -116 -66 0
1 -200 -201 0
1 200 202 0
1 203 204 0
1 -204 -203 0
1 204 116 0
1 204 120 0
1 127 57 0
1 -127 -205 0
1 -127 -128 0
1 -206 200 0
1 -206 -207 0
1 208 206 0
1 -208 -131 0
1 -209 -131 0
1 -209 210 0
1 -209 211 0
1 205 212 0
1 150 209 0
1 136 -145 0
1 -136 209 0
1 -213 -214 0
1 -215 -216 0
1 -215 213 0
1 215 -136 0
1 -217 125 0
1 207 136 0
1 207 206 0
1 218 149 0
1 -216 144 0
1 -216 -215 0
1 156 -219 0
1 -154 146 0
1 154 156 0
1 154 220 0
1 214 -221 0
1 -222 -223 0
1 -224 -225 0
1 224 154 0
1 224 226 0
1 224 -156 0
1 -227 -213 0
1 227 156 0
1 -227 211 0
1 -227 137 0
1 -228 153 0
1 -229 -149 0
1 230 -219 0
1 -231 -232 0
1 219 -229 0
1 -219 154 0
1 -146 -230 0
1 233 226 0
1 232 234 0
1 232 -235 0
1 -236 237 0
1 -237 230 0
1 -237 -238 0
1 234 230 0
1 234 -239 0
1 -234 233 0
1 -240 241 0
1 -242 243 0
1 244 -245 0
1 -246 -247 0
1 -246 -242 0
1 241 -240 0
1 -241 -248 0
1 241 -249 0
1 -241 242 0
1 250 -158 0
1 -251 -243 0
1 -249 -243 0
1 -249 -252 0
1 249 253 0
1 -247 252 0
1 -247 254 0
1 -243 -255 0
1 245 -256 0
1 254 -256 0
1 257 -258 0
1 -255 259 0
1 255 260 0
1 255 -261 0
1 255 262 0
1 -263 -255 0
1 -263 261 0
1 -261 180 0
1 -261 264 0
1 -261 265 0
1 252 -266 0
1 252 -255 0
1 267 -268 0
1 -269 170 0
1 269 -261 0
1 162 -264 0
1 -262 179 0
1 262 -270 0
1 -271 -272 0
1 271 -273 0
1 186 -175 0
1 -186 -274 0
1 188 162 0
1 275 189 0
1 276 -179 0
1 274 277 0
1 274 -170 0
1 -172 264 0
1 195 -278 0
1 -195 279 0
1 -195 -280 0
1 195 -281 0
1 282 -176 0
1 -278 -283 0
1 -278 -195 0
1 -281 284 0
1 281 275 0
1 -285 279 0
1 -286 -287 0
1 -286 -288 0
1 286 289 0
1 -290 -291 0
1 290 -198 0
1 -290 -282 0
1 288 -292 0
1 -288 285 0
1 -291 195 0
1 -280 285 0
1 280 293 0
1 -292 -294 0
1 292 -197 0
1 -295 -289 0
1 -296 -297 0
1 298 -299 0
1 -298 -300 0
1 289 295 0
1 294 286 0
1 294 -301 0
1 -294 -298 0
1 294 290 0
1 294 302 0
1 -300 290 0
1 300 -303 0
1 -304 -292 0
1 -305 306 0
1 307 308 0
1 -307 -309 0
1 -308 310 0
1 308 -301 0
1 308 -298 0
1 297 305 0
1 297 311 0
1 -297 312 0
1 299 313 0
1 299 -314 0
1 -299 -302 0
1 -312 -309 0
1 -312 -315 0
1 -312 205 0
1 -316 -209 0
1 -316 -317 0
1 -316 -315 0
1 -316 205 0
1 318 -217 0
1 310 -315 0
1 -202 316 0
1 202 312 0
1 202 -319 0
1 -202 -307 0
1 -317 -312 0
1 -320 321 0
1 -320 -210 0
1 -322 313 0
1 -322 323 0
1 -322 -215 0
1 322 -220 0
1 -225 -227 0
1 225 230 0
1 225 -324 0
1 -325 322 0
1 -325 -318 0
1 321 310 0
1 -212 -326 0
1 212 324 0
1 -226 227 0
1 226 -327 0
1 226 -224 0
1 226 214 0
1 -226 328 0
1 -329 222 0
1 329 -146 0
1 329 226 0
1 -329 -330 0
1 331 325 0
1 331 -332 0
1 333 -325 0
1 -333 -221 0
1 -333 210 0
1 333 334 0
1 327 329 0
1 -327 335 0
1 327 -331 0
1 -334 -239 0
1 328 332 0
1 -328 333 0
1 -335 -336 0
1 -239 -337 0
1 338 -234 0
1 221 -335 0
1 336 -339 0
1 -336 -335 0
1 -336 -333 0
1 -340 339 0
1 340 239 0
1 238 341 0
1 -238 -236 0
1 -342 -343 0
1 342 344 0
1 343 345 0
1 -346 341 0
1 -346 -347 0
1 -348 349 0
1 -348 -350 0
1 -351 348 0
1 -351 352 0
1 351 -350 0
1 -347 353 0
1 354 -240 0
1 -355 248 0
1 -355 356 0
1 357 -358 0
1 357 359 0
1 -357 360 0
1 -360 -358 0
1 360 253 0
1 -360 361 0
1 358 -362 0
1 -358 363 0
1 -364 365 0
1 366 367 0
1 -368 -367 0
1 253 -369 0
1 -253 370 0
1 362 358 0
1 -371 359 0
1 -359 372 0
1 373 -374 0
1 258 -254 0
1 -258 372 0
1 -258 -375 0
1 256 -376 0
1 -256 265 0
1 -377 256 0
1 -369 378 0
1 369 -379 0
1 -380 377 0
1 380 372 0
1 -375 381 0
1 -268 260 0
1 -266 180 0
1 379 -382 0
1 379 -383 0
1 -384 385 0
1 386 246 0
1 -376 -386 0
1 387 -266 0
1 387 388 0
1 387 389 0
1 -390 252 0
1 -390 -382 0
1 -391 263 0
1 -391 267 0
1 391 -261 0
1 392 386 0
1 -392 393 0
1 -392 -385 0
1 392 394 0
1 385 395 0
1 -385 396 0
1 -385 -392 0
1 385 -273 0
1 397 -396 0
1 397 379 0
1 -397 398 0
1 -393 384 0
1 -270 -399 0
1 270 -388 0
1 -270 -162 0
1 -270 274 0
1 -270 400 0
1 -272 -385 0
1 -272 270 0
1 396 385 0
1 -396 401 0
1 396 -402 0
1 403 404 0
1 -403 -397 0
1 399 -270 0
1 399 400 0
1 -400 396 0
1 394 273 0
1 -401 405 0
1 -401 403 0
1 277 406 0
1 -277 399 0
1 277 -404 0
1 -407 276 0
1 -407 274 0
1 -407 408 0
1 -287 408 0
1 -287 409 0
1 -410 -411 0
1 -410 404 0
1 410 412 0
1 -410 -413 0
1 404 414 0
1 -404 -403 0
1 402 -411 0
1 -415 -404 0
1 -415 -409 0
1 -414 -416 0
1 -293 408 0
1 413 -417 0
1 -418 419 0
1 -412 420 0
1 412 -421 0
1 412 -409 0
1 409 415 0
1 409 -412 0
1 -422 -418 0
1 423 -283 0
1 -424 284 0
1 424 -425 0
1 426 427 0
1 283 293 0
1 -284 -428 0
1 284 -429 0
1 430 431 0
1 -430 432 0
1 -302 -289 0
1 -433 434 0
1 433 -425 0
1 -314 -429 0
1 -314 -303 0
1 -435 -436 0
1 425 302 0
1 -437 -438 0
1 439 -440 0
1 439 302 0
1 -438 441 0
1 -313 299 0
1 -442 443 0
1 -444 -443 0
1 444 -445 0
1 444 446 0
1 -441 -438 0
1 447 -314 0
1 -448 317 0
1 449 321 0
1 -450 -319 0
1 445 -449 0
1 445 444 0
1 445 -451 0
1 -311 -452 0
1 443 -450 0
1 446 -453 0
1 452 454 0
1 -452 319 0
1 -455 -319 0
1 -456 -457 0
1 456 328 0
1 319 -458 0
1 319 -459 0
1 457 460 0
1 -454 457 0
1 -454 -452 0
1 454 450 0
1 461 -336 0
1 -461 319 0
1 -461 -462 0
1 -463 319 0
1 339 464 0
1 -464 465 0
1 464 -466 0
1 464 -467 0
1 -468 469 0
1 -470 471 0
1 470 456 0
1 470 -472 0
1 473 455 0
1 462 -339 0
1 462 -474 0
1 462 459 0
1 -469 -468 0
1 469 -337 0
1 469 -470 0
1 475 -459 0
1 476 477 0
1 -466 -478 0
1 -466 475 0
1 -466 -464 0
1 -466 479 0
1 -466 -480 0
1 466 481 0
1 -481 469 0
1 -481 -466 0
1 481 -477 0
1 482 -479 0
1 -483 -484 0
1 -345 343 0
1 -485 486 0
1 -480 -466 0
1 -487 -488 0
1 487 466 0
1 -487 489 0
1 -490 -485 0
1 490 491 0
1 492 -485 0
1 -492 -490 0
1 -493 494 0
1 -491 -492 0
1 -352 -489 0
1 495 496 0
1 495 490 0
1 495 -489 0
1 495 -497 0
1 498 491 0
1 489 -487 0
1 499 497 0
1 -499 -500 0
1 -501 498 0
1 -502 500 0
1 503 502 0
1 500 -503 0
1 -500 502 0
1 -497 501 0
1 353 504 0
1 -505 -506 0
1 -507 -357 0
1 -507 -508 0
1 509 367 0
1 -506 510 0
1 -506 511 0
1 -508 -512 0
1 367 513 0
1 514 513 0
1 514 -515 0
1 516 517 0
1 516 -518 0
1 -519 374 0
1 519 -520 0
1 -513 -365 0
1 -521 522 0
1 521 523 0
1 521 524 0
1 525 518 0
1 526 527 0
1 -528 -374 0
1 -528 -529 0
1 -374 523 0
1 -515 -516 0
1 518 -530 0
1 518 -514 0
1 -531 -532 0
1 -381 -533 0
1 -381 534 0
1 535 -383 0
1 -535 -531 0
1 -536 -381 0
1 537 381 0
1 -537 530 0
1 537 374 0
1 537 538 0
1 533 -381 0
1 -533 -374 0
1 378 -539 0
1 -540 -535 0
1 -540 369 0
1 541 -387 0
1 -541 -542 0
1 534 540 0
1 539 540 0
1 -539 -359 0
1 543 544 0
1 -543 -541 0
1 -388 -534 0
1 -388 389 0
1 -389 -539 0
1 389 -545 0
1 389 -382 0
1 389 -272 0
1 389 -544 0
1 -546 393 0
1 -546 547 0
1 -548 -534 0
1 -548 549 0
1 549 -550 0
1 549 551 0
1 552 -553 0
1 552 -401 0
1 -405 554 0
1 -405 555 0
1 405 552 0
1 -405 398 0
1 405 -556 0
1 547 -557 0
1 -547 -558 0
1 547 559 0
1 560 -559 0
1 561 -560 0
1 -416 402 0
1 562 395 0
1 562 -553 0
1 -563 -554 0
1 395 -564 0
1 -395 557 0
1 -395 427 0
1 -395 -563 0
1 -395 565 0
1 -398 -552 0
1 -398 -563 0
1 -555 -563 0
1 555 553 0
1 -555 566 0
1 553 -552 0
1 553 567 0
1 553 568 0
1 -564 411 0
1 -421 569 0
1 -421 -424 0
1 -570 427 0
1 571 427 0
1 -571 -420 0
1 419 -570 0
1 419 -412 0
1 -419 413 0
1 -417 572 0
1 -417 -573 0
1 -417 413 0
1 -417 -419 0
1 -429 -432 0
1 429 -572 0
1 429 -314 0
1 429 574 0
1 432 -575 0
1 -573 -576 0
1 -573 577 0
1 573 417 0
1 573 427 0
1 573 -421 0
1 -578 421 0
1 -572 -579 0
1 572 -580 0
1 -574 402 0
1 428 -438 0
1 -428 -434 0
1 -440 581 0
1 -440 582 0
1 -440 -578 0
1 583 575 0
1 -577 -575 0
1 577 584 0
1 -577 582 0
1 -581 -585 0
1 581 586 0
1 581 428 0
1 -581 587 0
1 -575 -577 0
1 575 -588 0
1 -589 -447 0
1 -586 581 0
1 -586 -431 0
1 585 447 0
1 -590 -453 0
1 591 -592 0
1 431 -593 0
1 -431 594 0
1 -431 586 0
1 431 -595 0
1 -453 443 0
1 453 -447 0
1 453 -596 0
1 597 598 0
1 -597 -447 0
1 597 -599 0
1 600 -590 0
1 -601 -599 0
1 599 467 0
1 -598 451 0
1 598 467 0
1 -596 439 0
1 -602 -586 0
1 -602 601 0
1 -451 -603 0
1 -451 -599 0
1 460 -604 0
1 460 311 0
1 460 -595 0
1 -605 -606 0
1 -467 598 0
1 -467 -607 0
1 604 -605 0
1 604 451 0
1 604 -608 0
1 604 -467 0
1 609 -610 0
1 458 -603 0
1 458 -319 0
1 459 -606 0
1 459 -465 0
1 459 -611 0
1 -612 -473 0
1 612 -462 0
1 -474 -603 0
1 613 614 0
1 -613 -467 0
1 611 613 0
1 -606 458 0
1 606 -615 0
1 616 -617 0
1 -616 -446 0
1 471 -484 0
1 471 611 0
1 -484 468 0
1 484 -482 0
1 -484 -470 0
1 -618 619 0
1 620 -488 0
1 619 -612 0
1 619 -621 0
1 619 494 0
1 619 -622 0
1 -623 -488 0
1 494 -620 0
1 494 -479 0
1 -624 -625 0
1 626 495 0
1 -626 627 0
1 626 628 0
1 626 -629 0
1 -628 468 0
1 628 630 0
1 628 -631 0
1 628 -479 0
1 -625 -632 0
1 633 492 0
1 -633 -478 0
1 633 472 0
1 -630 -634 0
1 630 628 0
1 -630 489 0
1 -478 634 0
1 478 635 0
1 636 626 0
1 636 630 0
1 636 481 0
1 -629 -626 0
1 -637 -636 0
1 638 639 0
1 -638 -640 0
1 641 642 0
1 642 -643 0
1 643 638 0
1 -643 644 0
1 -645 638 0
1 645 646 0
1 647 -638 0
1 -644 643 0
1 648 -649 0
1 -649 643 0
1 -650 642 0
1 -650 -651 0
1 -650 -648 0
1 652 -653 0
1 -654 655 0
1 651 656 0
1 -657 658 0
1 657 -659 0
1 657 660 0
1 -661 356 0
1 -661 -662 0
1 663 664 0
1 662 -665 0
1 -662 -666 0
1 -667 668 0
1 666 668 0
1 666 514 0
1 -666 669 0
1 670 671 0
1 672 -673 0
1 -672 -523 0
1 -672 -512 0
1 -674 -672 0
1 524 -513 0
1 512 -506 0
1 -512 -526 0
1 -512 521 0
1 529 510 0
1 -523 -672 0
1 -523 -675 0
1 523 -676 0
1 677 -522 0
1 677 -529 0
1 678 -524 0
1 679 -523 0
1 -679 -680 0
1 679 529 0
1 -532 677 0
1 -532 -681 0
1 522 521 0
1 -682 -520 0
1 683 675 0
1 683 684 0
1 -685 523 0
1 -510 -522 0
1 -510 523 0
1 510 686 0
1 675 687 0
1 -538 685 0
1 688 -520 0
1 -688 -689 0
1 -688 -690 0
1 691 692 0
1 -691 -541 0
1 520 693 0
1 -694 -683 0
1 -694 682 0
1 694 -691 0
1 -695 -537 0
1 -695 -542 0
1 695 -694 0
1 544 -696 0
1 697 542 0
1 696 518 0
1 -698 693 0
1 698 -699 0
1 -698 -544 0
1 698 691 0
1 -700 -701 0
1 -702 543 0
1 -702 -545 0
1 703 -704 0
1 -703 -702 0
1 556 705 0
1 556 706 0
1 -556 549 0
1 707 697 0
1 707 -708 0
1 550 -704 0
1 550 709 0
1 550 -710 0
1 -550 711 0
1 708 709 0
1 708 -710 0
1 -712 713 0
1 -714 715 0
1 -716 709 0
1 716 -534 0
1 717 712 0
1 -717 -705 0
1 -705 -718 0
1 705 550 0
1 -705 543 0
1 -719 -554 0
1 -719 -709 0
1 -568 -547 0
1 720 -721 0
1 -720 -722 0
1 -720 -555 0
1 -715 -723 0
1 -715 -568 0
1 -715 724 0
1 -715 566 0
1 -713 725 0
1 565 555 0
1 -567 722 0
1 567 -555 0
1 -567 571 0
1 567 553 0
1 -726 -727 0
1 -722 720 0
1 -722 -726 0
1 -722 566 0
1 -727 584 0
1 -728 729 0
1 -728 -724 0
1 -730 731 0
1 730 732 0
1 730 -569 0
1 -730 -733 0
1 730 428 0
1 -579 -570 0
1 579 734 0
1 -735 733 0
1 732 736 0
1 733 579 0
1 -733 735 0
1 -733 -730 0
1 -731 555 0
1 731 -737 0
1 731 -738 0
1 734 -739 0
1 -734 -584 0
1 -734 -579 0
1 580 572 0
1 580 -740 0
1 -576 -580 0
1 741 -740 0
1 736 -742 0
1 -736 -743 0
1 742 576 0
1 742 -592 0
1 742 -744 0
1 -744 -745 0
1 -744 -741 0
1 746 -747 0
1 746 -740 0
1 -588 -748 0
1 588 -582 0
1 -588 591 0
1 -749 431 0
1 -749 -750 0
1 -750 751 0
1 750 -594 0
1 -752 -751 0
1 752 607 0
1 752 -595 0
1 -752 -749 0
1 743 -588 0
1 743 -753 0
1 -594 -754 0
1 -594 591 0
1 -595 -755 0
1 595 602 0
1 595 754 0
1 -756 -602 0
1 -607 467 0
1 -757 -758 0
1 -759 760 0
1 755 575 0
1 -755 761 0
1 755 762 0
1 -610 596 0
1 763 -764 0
1 -765 -766 0
1 -765 -767 0
1 768 -617 0
1 -768 610 0
1 -766 -769 0
1 766 591 0
1 -766 -770 0
1 593 -771 0
1 -593 -766 0
1 -617 772 0
1 -617 -773 0
1 617 609 0
1 -608 -774 0
1 -608 604 0
1 608 -768 0
1 -608 -775 0
1 764 598 0
1 764 776 0
1 -777 617 0
1 777 -778 0
1 -779 -616 0
1 615 -780 0
1 -781 782 0
1 782 -603 0
1 -782 -783 0
1 780 781 0
1 -784 -785 0
1 784 -615 0
1 -786 -776 0
1 622 -782 0
1 622 780 0
1 622 -623 0
1 787 630 0
1 788 -789 0
1 -788 -632 0
1 -788 -790 0
1 -791 -632 0
1 792 793 0
1 792 790 0
1 794 627 0
1 794 637 0
1 789 -627 0
1 -795 -614 0
1 -795 -796 0
1 -795 -797 0
1 795 641 0
1 -798 -799 0
1 -797 798 0
1 797 -620 0
1 797 794 0
1 -800 -801 0
1 799 -632 0
1 -799 -802 0
1 803 804 0
1 805 -795 0
1 806 807 0
1 655 808 0
1 655 809 0
1 -655 -805 0
1 810 811 0
1 810 -812 0
1 -810 813 0
1 -814 478 0
1 814 815 0
1 808 -810 0
1 -816 817 0
1 816 -812 0
1 818 819 0
1 -818 656 0
1 818 -817 0
1 -818 -820 0
1 -821 811 0
1 -821 819 0
1 -821 653 0
1 -653 -504 0
1 653 -822 0
1 -823 -824 0
1 -822 821 0
1 -825 -645 0
1 825 -823 0
1 825 -826 0
1 824 827 0
1 -811 828 0
1 811 829 0
1 -811 -810 0
1 811 -830 0
1 658 -831 0
1 -658 832 0
1 833 834 0
1 -835 -836 0
1 837 838 0
1 -839 838 0
1 -840 841 0
1 -840 842 0
1 840 -843 0
1 844 836 0
1 -845 -846 0
1 -845 -847 0
1 845 836 0
1 848 -846 0
1 849 -837 0
1 -849 846 0
1 834 835 0
1 836 -849 0
1 836 850 0
1 846 -844 0
1 -846 -504 0
1 -846 -851 0
1 852 -853 0
1 852 -854 0
1 -852 -855 0
1 -856 -857 0
1 858 855 0
1 -858 859 0
1 853 860 0
1 -853 861 0
1 -853 -862 0
1 -863 864 0
1 669 864 0
1 -669 865 0
1 669 -866 0
1 -867 -861 0
1 868 -664 0
1 868 -869 0
1 -865 -870 0
1 861 -664 0
1 -871 -662 0
1 872 668 0
1 872 -873 0
1 872 868 0
1 -872 862 0
1 874 -875 0
1 -869 -873 0
1 -869 -876 0
1 -869 -877 0
1 878 -879 0
1 -880 871 0
1 876 879 0
1 -881 -882 0
1 -881 872 0
1 -881 867 0
1 -881 -883 0
1 881 876 0
1 881 -874 0
1 881 -669 0
1 -681 -877 0
1 -884 885 0
1 -884 -665 0
1 886 -877 0
1 886 665 0
1 885 874 0
1 -887 -879 0
1 887 883 0
1 687 -677 0
1 -687 673 0
1 -888 889 0
1 890 891 0
1 -673 687 0
1 -673 892 0
1 673 893 0
1 893 673 0
1 894 -687 0
1 895 -896 0
1 -897 898 0
1 899 893 0
1 889 -678 0
1 889 900 0
1 693 692 0
1 -693 698 0
1 -699 -690 0
1 -699 -686 0
1 706 901 0
1 -706 902 0
1 706 903 0
1 904 905 0
1 903 906 0
1 903 -706 0
1 686 -907 0
1 -908 693 0
1 -701 550 0
1 909 901 0
1 909 910 0
1 -911 -712 0
1 -911 -912 0
1 -911 -904 0
1 911 903 0
1 -906 911 0
1 -906 901 0
1 -906 913 0
1 -914 906 0
1 -915 -911 0
1 -915 -916 0
1 917 704 0
1 917 705 0
1 -917 -918 0
1 -917 -910 0
1 -919 920 0
1 -718 -921 0
1 718 -920 0
1 -718 -918 0
1 920 -922 0
1 -918 -923 0
1 918 -906 0
1 -918 924 0
1 -913 925 0
1 913 926 0
1 -927 922 0
1 928 -709 0
1 928 927 0
1 929 -930 0
1 -929 -931 0
1 -929 -932 0
1 929 713 0
1 -929 933 0
1 -932 934 0
1 930 -718 0
1 -930 935 0
1 930 936 0
1 937 -928 0
1 937 936 0
1 937 927 0
1 938 -939 0
1 938 -935 0
1 -724 -713 0
1 -724 -940 0
1 724 941 0
1 -942 -940 0
1 -942 943 0
1 942 944 0
1 -933 -739 0
1 -945 946 0
1 945 932 0
1 -945 738 0
1 -947 -723 0
1 931 948 0
1 -931 -724 0
1 -931 947 0
1 -738 -728 0
1 738 -949 0
1 -950 725 0
1 -950 933 0
1 -949 -951 0
1 949 -950 0
1 -949 -952 0
1 -953 747 0
1 -953 950 0
1 -953 -954 0
1 953 955 0
1 944 -942 0
1 725 -956 0
1 -725 -957 0
1 747 958 0
1 747 -959 0
1 -952 -958 0
1 -952 -747 0
1 -960 -961 0
1 -961 960 0
1 961 -727 0
1 -961 -955 0
1 -958 -962 0
1 -963 743 0
1 963 964 0
1 965 -966 0
1 967 733 0
1 737 -968 0
1 737 747 0
1 751 965 0
1 -751 -967 0
1 969 -751 0
1 -969 -965 0
1 969 743 0
1 -969 610 0
1 -760 970 0
1 -971 -972 0
1 971 973 0
1 971 762 0
1 971 -969 0
1 745 -769 0
1 -974 -975 0
1 -974 976 0
1 977 978 0
1 772 755 0
1 -772 593 0
1 -772 970 0
1 772 766 0
1 973 -772 0
1 -973 -754 0
1 -973 979 0
1 769 785 0
1 -980 783 0
1 980 979 0
1 -981 -760 0
1 981 982 0
1 -981 973 0
1 -983 -984 0
1 770 984 0
1 770 -761 0
1 -982 758 0
1 -982 -773 0
1 -982 985 0
1 -986 758 0
1 -986 -987 0
1 -778 988 0
1 -778 777 0
1 -758 -989 0
1 -985 -980 0
1 -776 -622 0
1 990 -987 0
1 990 787 0
1 -990 -991 0
1 -992 989 0
1 992 993 0
1 -994 995 0
1 994 -992 0
1 -994 778 0
1 -996 778 0
1 987 -771 0
1 987 -997 0
1 -987 998 0
1 -771 999 0
1 991 -802 0
1 1000 991 0
1 -1000 804 0
1 1001 -1002 0
1 1001 -774 0
1 -1001 997 0
1 -802 -791 0
1 802 -1000 0
1 -802 997 0
1 1003 -995 0
1 1003 802 0
1 -1004 -1005 0
1 -1004 -1006 0
1 1004 -804 0
1 804 -796 0
1 1007 1004 0
1 -1008 780 0
1 1008 -804 0
1 -1009 1010 0
1 -1005 1011 0
1 1005 1012 0
1 -1013 1008 0
1 1014 -810 0
1 -807 1015 0
1 807 -812 0
1 -807 806 0
1 1016 -804 0
1 1015 1017 0
1 -819 1018 0
1 819 -818 0
1 -1019 801 0
1 1020 -1021 0
1 -820 1022 0
1 -820 816 0
1 -820 -1023 0
1 -820 818 0
1 -1024 -1014 0
1 1024 -820 0
1 1024 1019 0
1 -801 1025 0
1 -1026 1027 0
1 -1026 807 0
1 -1018 -1028 0
1 1018 1020 0
1 -828 -1029 0
1 828 818 0
1 1029 -811 0
1 1029 842 0
1 1029 -1030 0
1 -830 1031 0
1 -1021 -1029 0
1 1032 847 0
1 -1022 -1033 0
1 -1031 -1034 0
1 827 -1028 0
1 847 1032 0
1 1035 -1036 0
1 1035 829 0
1 1035 841 0
1 1037 1038 0
1 -1037 -841 0
1 1037 -814 0
1 -1037 -851 0
1 1037 1035 0
1 -1039 -827 0
1 1039 1040 0
1 1039 1041 0
1 1042 1043 0
1 -843 831 0
1 -851 1037 0
1 -1044 -1045 0
1 -1046 838 0
1 -850 -834 0
1 1047 846 0
1 -1045 1044 0
1 -1048 -1049 0
1 -1050 1048 0
1 1051 -1052 0
1 -1053 1054 0
1 -1053 -1055 0
1 1053 1056 0
1 -1057 1058 0
1 1059 1053 0
1 1059 -1055 0
1 -1055 1059 0
1 -1058 1060 0
1 870 -876 0
1 -1061 -881 0
1 1062 -1063 0
1 1064 1065 0
1 -1064 1061 0
1 1064 866 0
1 -857 1066 0
1 -857 -1061 0
1 857 859 0
1 859 870 0
1 883 -1064 0
1 -883 878 0
1 879 887 0
1 879 -883 0
1 -1067 1068 0
1 1069 -1063 0
1 1070 864 0
1 -1070 1067 0
1 -1070 -1069 0
1 -896 -1071 0
1 -896 -895 0
1 1072 882 0
1 -1072 885 0
1 1072 1073 0
1 -1074 1075 0
1 -1076 1077 0
1 -1076 1078 0
1 882 -896 0
1 -882 1079 0
1 1080 1071 0
1 1080 -895 0
1 1080 1081 0
1 900 -1080 0
1 900 -1082 0
1 900 -1083 0
1 -1084 -889 0
1 -1084 -1073 0
1 -1084 1085 0
1 -1084 -1081 0
1 1086 -1087 0
1 1086 1088 0
1 1086 -1089 0
1 1075 -1090 0
1 1075 1084 0
1 1091 889 0
1 907 1092 0
1 -1093 -921 0
1 1093 673 0
1 -1093 1094 0
1 1093 -1085 0
1 1093 -916 0
1 -1085 1095 0
1 -1092 -1084 0
1 -916 -1096 0
1 916 -908 0
1 921 718 0
1 -921 1097 0
1 1094 1093 0
1 1094 -1098 0
1 1094 1099 0
1 1094 935 0
1 1099 1100 0
1 1101 -1099 0
1 -1098 1102 0
1 -1098 -1103 0
1 -926 1103 0
1 926 -1104 0
1 -1105 1099 0
1 1106 -934 0
1 -1106 1107 0
1 934 -1097 0
1 -1108 1104 0
1 -1108 934 0
1 -1104 921 0
1 -1104 -1109 0
1 -1097 -1105 0
1 -924 -1110 0
1 -925 -723 0
1 -925 -1108 0
1 -925 -918 0
1 925 -1110 0
1 -1111 1108 0
1 -1111 -1112 0
1 1113 1114 0
1 1113 1111 0
1 -1110 1106 0
1 1115 1112 0
1 1112 -1116 0
1 -1112 1117 0
1 1112 1118 0
1 1112 1119 0
1 -1120 1121 0
1 -1120 1122 0
1 1122 1123 0
1 1122 -1111 0
1 1114 -1124 0
1 956 1116 0
1 956 939 0
1 956 -1125 0
1 957 747 0
1 1126 939 0
1 -1126 952 0
1 -1126 1127 0
1 -1126 1128 0
1 1125 -948 0
1 -1125 -954 0
1 1129 -1130 0
1 -1129 -1131 0
1 939 938 0
1 -954 -1132 0
1 962 -1121 0
1 1133 1127 0
1 1133 1134 0
1 1133 -954 0
1 -1127 968 0
1 -1127 -1126 0
1 -1135 1136 0
1 -1135 -1137 0
1 1138 -1139 0
1 1138 -957 0
1 -1140 1133 0
1 1141 -960 0
1 1141 -1127 0
1 -1141 -1142 0
1 1141 969 0
1 -968 -737 0
1 -968 1143 0
1 968 1144 0
1 -1145 1146 0
1 1145 1147 0
1 1145 762 0
1 -951 -1148 0
1 951 976 0
1 -951 -1134 0
1 951 949 0
1 1149 -1141 0
1 1144 1145 0
1 1144 -1150 0
1 1151 -1136 0
1 -1151 -1152 0
1 978 951 0
1 978 737 0
1 -978 -965 0
1 -976 -1147 0
1 -1153 -769 0
1 1153 -977 0
1 -975 -1146 0
1 -975 -1149 0
1 -975 -1147 0
1 -1147 1145 0
1 -1154 -979 0
1 1155 -1156 0
1 -988 1157 0
1 988 979 0
1 -1158 1159 0
1 -1160 1153 0
1 1160 1154 0
1 -1160 1161 0
1 -1156 -1162 0
1 -1156 1163 0
1 1157 -1153 0
1 -1157 -1154 0
1 -1164 1165 0
1 -1166 1158 0
1 -1166 1160 0
1 -1167 1168 0
1 1167 -1169 0
1 1167 1170 0
1 -1167 985 0
1 1167 990 0
1 1168 -1169 0
1 -1168 -1165 0
1 -972 -1155 0
1 1171 -1172 0
1 1169 988 0
1 -1169 1173 0
1 1165 1174 0
1 -1175 -998 0
1 -1172 -987 0
1 -1176 1177 0
1 -1176 1172 0
1 1176 987 0
1 -1170 1178 0
1 1170 -1006 0
1 -1170 -997 0
1 1178 -1167 0
1 -1179 1180 0
1 -1179 983 0
1 1181 -1182 0
1 1181 1167 0
1 1183 -1177 0
1 -1183 1184 0
1 -1184 997 0
1 -1184 989 0
1 -1185 995 0
1 -1185 -1176 0
1 -1186 -995 0
1 1186 -761 0
1 1186 -1187 0
1 -1186 -1188 0
1 1011 -1013 0
1 1010 -1184 0
1 -1010 -1189 0
1 1012 -1009 0
1 1012 1190 0
1 -1012 -1010 0
1 -1190 -1191 0
1 -1190 1010 0
1 -999 -1011 0
1 -999 1006 0
1 -1192 1193 0
1 1192 1194 0
1 -1017 1192 0
1 1017 -1195 0
1 1017 1194 0
1 -1196 1197 0
1 1197 -1198 0
1 -1197 -1017 0
1 1195 -1027 0
1 -1193 -1010 0
1 -1027 1199 0
1 -1027 -1200 0
1 -1027 -1201 0
1 1201 -1202 0
1 -1201 -830 0
1 1200 -1030 0
1 1199 -1030 0
1 1203 -1196 0
1 1028 1018 0
1 -1204 1022 0
1 1034 1205 0
1 1202 1206 0
1 -1202 1207 0
1 -1208 -1202 0
1 -1208 1204 0
1 -1208 -1201 0
1 1209 1210 0
1 -1211 1202 0
1 1211 1207 0
1 1212 1213 0
1 1212 -1042 0
1 1212 -1208 0
1 1212 1025 0
1 -1213 -1214 0
1 -1213 1212 0
1 -1205 1215 0
1 -1025 1216 0
1 -1025 1213 0
1 1217 -1211 0
1 -1217 -1212 0
1 1218 1213 0
1 -1041 1046 0
1 1041 -1219 0
1 1038 1039 0
1 -1038 1205 0
1 1038 1214 0
1 1038 -1219 0
1 1220 -1221 0
1 1216 -829 0
1 -1216 -1046 0
1 1219 1052 0
1 1222 -1213 0
1 -1052 -829 0
1 1052 -1223 0
1 -1052 -1224 0
1 1052 -1044 0
1 -1052 -1219 0
1 -1049 1225 0
1 -1049 -1048 0
1 -1226 -1220 0
1 1040 1049 0
1 -1040 1227 0
1 -1223 1049 0
1 -1223 -1216 0
1 -1223 -1227 0
1 1228 1229 0
1 -1228 1079 0
1 -1079 900 0
1 -1229 1230 0
1 -1231 -857 0
1 -1230 1232 0
1 -1233 882 0
1 -1234 1235 0
1 1234 -1236 0
1 -1234 1237 0
1 1238 1239 0
1 -1238 -1240 0
1 1238 -1078 0
1 -1232 -1241 0
1 1232 1237 0
1 1087 1075 0
1 -1242 1087 0
1 1242 1071 0
1 -1243 1239 0
1 1243 1244 0
1 -1243 -1237 0
1 -1243 -1245 0
1 -1246 -1247 0
1 1103 1247 0
1 -1103 -1248 0
1 1103 1249 0
1 -1102 1092 0
1 -1107 -1250 0
1 1107 1249 0
1 1251 -1235 0
1 -1251 1252 0
1 -1253 1251 0
1 1249 -1254 0
1 1249 1255 0
1 -1248 -1082 0
1 1248 1102 0
1 -1248 -1255 0
1 1256 -1096 0
1 1257 -1258 0
1 1257 -1253 0
1 -1259 -1113 0
1 -1259 -1260 0
1 1259 -1261 0
1 1258 1259 0
1 1258 -1262 0
1 1258 1263 0
1 -1250 -1256 0
1 1264 1255 0
1 1260 -1265 0
1 1260 1262 0
1 1118 -1266 0
1 -1118 -1250 0
1 1263 -1112 0
1 1117 1267 0
1 1268 -1117 0
1 1268 1101 0
1 -1267 -1269 0
1 -1270 -1117 0
1 1270 1271 0
1 -1272 923 0
1 1272 -1109 0
1 1124 1273 0
1 1124 -923 0
1 1274 -1108 0
1 -1274 1130 0
1 -1275 1263 0
1 1275 1276 0
1 1277 -1275 0
1 1277 -1272 0
1 1277 1128 0
1 1130 -1278 0
1 -1130 1271 0
1 -1279 1280 0
1 -1281 1273 0
1 -1281 1137 0
1 -1278 1282 0
1 1278 -1283 0
1 -1119 1278 0
1 -1284 1285 0
1 -1284 -1138 0
1 -1137 1286 0
1 -1137 -939 0
1 -1137 -1129 0
1 1287 -1288 0
1 1289 1290 0
1 1289 -1145 0
1 -1291 1292 0
1 -1291 1136 0
1 1291 -1284 0
1 -1286 -1292 0
1 1293 1289 0
1 1285 -1294 0
1 -1285 1293 0
1 -1285 -1279 0
1 -1295 1296 0
1 1297 -1287 0
1 -1297 1298 0
1 -1148 -1139 0
1 -1148 1299 0
1 1300 1144 0
1 1298 -1301 0
1 1298 1152 0
1 1298 1147 0
1 1298 1155 0
1 1299 -1148 0
1 -1299 -1127 0
1 -1302 1303 0
1 1302 1304 0
1 1163 -1305 0
1 1306 -1156 0
1 -1306 1157 0
1 1305 -1307 0
1 1305 1173 0
1 1307 1308 0
1 -1307 -1306 0
1 1307 1173 0
1 1307 -1163 0
1 1150 1309 0
1 1150 1310 0
1 -1150 1306 0
1 1150 1311 0
1 1150 -1163 0
1 1152 1308 0
1 -1152 -1312 0
1 -1152 -1313 0
1 -1174 -1156 0
1 -1174 -1160 0
1 1314 1175 0
1 -1314 1169 0
1 1173 1315 0
1 -1316 -1317 0
1 1316 -1318 0
1 -1316 1169 0
1 1317 -1316 0
1 -1317 -1314 0
1 1317 1306 0
1 -1317 -1319 0
1 -1317 1162 0
1 1319 -1180 0
1 -1320 -1321 0
1 -1320 1173 0
1 -1322 -1323 0
1 -1322 1174 0
1 -1324 -1171 0
1 1180 -995 0
1 1180 -972 0
1 1180 1179 0
1 1180 -1171 0
1 1325 1318 0
1 -1325 1159 0
1 1325 -1326 0
1 -1325 -1006 0
1 -1327 1326 0
1 -1159 1180 0
1 1159 1173 0
1 1161 -1327 0
1 1161 -1159 0
1 -1161 -1160 0
1 1161 1328 0
1 1318 -1329 0
1 1330 -1185 0
1 -1188 -1170 0
1 1331 1332 0
1 1328 1333 0
1 -1334 1325 0
1 -1334 -1335 0
1 1332 1327 0
1 1332 1325 0
1 -1336 1337 0
1 -1187 -999 0
1 -1187 -1192 0
1 1187 -1338 0
1 -1339 -1332 0
1 1340 1341 0
1 1340 1342 0
1 -1343 1344 0
1 -1343 1345 0
1 -1343 -1340 0
1 -1338 -1346 0
1 1338 1328 0
1 1182 -1346 0
1 1344 -1333 0
1 -1347 -1348 0
1 1347 -1190 0
1 -1347 -1341 0
1 -1347 -1349 0
1 -1350 -1351 0
1 1350 -1184 0
1 1348 -1352 0
1 1348 -1177 0
1 1341 -1344 0
1 1341 -1353 0
1 1354 1355 0
1 -1356 1346 0
1 -1356 -1191 0
1 1356 1197 0
1 -1352 1350 0
1 -1351 -1353 0
1 -1357 -1358 0
1 1359 -1360 0
1 -1361 1191 0
1 1361 1362 0
1 -1361 1363 0
1 1364 -1365 0
1 1358 1365 0
1 -1358 1366 0
1 1358 -1367 0
1 -1198 1368 0
1 -1198 -1351 0
1 -1198 -1361 0
1 1368 -1358 0
1 1368 1369 0
1 -1363 -1367 0
1 -1370 -1218 0
1 -1370 1206 0
1 1370 -1041 0
1 1206 -1209 0
1 1206 1218 0
1 1371 1372 0
1 1372 -1371 0
1 1365 1199 0
1 -1365 1373 0
1 -1365 1358 0
1 1374 1375 0
1 -1224 -1210 0
1 -1224 -1376 0
1 -1224 -1217 0
1 -1224 1372 0
1 -1224 1377 0
1 1215 -1049 0
1 1215 1378 0
1 -1215 1025 0
1 -1379 -1222 0
1 -1376 -1369 0
1 -1378 -1215 0
1 1377 -1375 0
1 1377 -1224 0
1 -1247 -1380 0
1 1247 -1243 0
1 1244 -1381 0
1 -1382 1383 0
1 -1382 -1244 0
1 1382 -1384 0
1 1381 1244 0
1 1385 1381 0
1 1385 1386 0
1 1383 1386 0
1 -1387 1388 0
1 -1389 -1259 0
1 -1236 -1390 0
1 -1236 1265 0
1 1236 -1391 0
1 -1236 1387 0
1 1240 1244 0
1 -1240 1387 0
1 1240 -1245 0
1 1255 -1392 0
1 1393 -1264 0
1 -1394 1386 0
1 -1394 1395 0
1 -1394 1396 0
1 1397 1398 0
1 1397 -1396 0
1 -1398 -1270 0
1 -1399 -1400 0
1 -1401 1402 0
1 1403 -1401 0
1 -1403 -1276 0
1 -1271 1403 0
1 1271 1404 0
1 -1276 -1405 0
1 1406 -1405 0
1 -1280 -1400 0
1 1407 -1408 0
1 -1407 1288 0
1 1400 1409 0
1 -1400 1404 0
1 -1404 -1408 0
1 -1404 -1410 0
1 1404 1409 0
1 1282 1405 0
1 1282 -1278 0
1 -1282 -1411 0
1 -1282 -1119 0
1 1412 1413 0
1 1412 -1414 0
1 1411 1294 0
1 1411 1413 0
1 -1411 -1288 0
1 -1269 1415 0
1 -1269 1416 0
1 -1416 1280 0
1 -1417 -1413 0
1 -1418 -1413 0
1 -1419 1420 0
1 -1421 1422 0
1 -1421 -1423 0
1 1421 1424 0
1 1420 -1425 0
1 -1420 -1288 0
1 1426 1427 0
1 1427 1422 0
1 -1425 1293 0
1 -1301 -1298 0
1 1428 1429 0
1 -1428 -1425 0
1 -1428 -1294 0
1 -1428 1430 0
1 1431 1422 0
1 -1432 -1419 0
1 1432 -1433 0
1 -1430 -1434 0
1 1303 1290 0
1 -1303 1139 0
1 1303 -1435 0
1 1303 1428 0
1 1436 1429 0
1 -1436 -1437 0
1 1436 1428 0
1 1438 -1439 0
1 1434 1436 0
1 -1437 1440 0
1 1437 1441 0
1 1442 -1438 0
1 1443 -1442 0
1 1443 1436 0
1 -1311 -1139 0
1 1311 1444 0
1 -1441 -1445 0
1 1441 -1139 0
1 -1313 -1173 0
1 -1313 -1446 0
1 1310 -1313 0
1 1310 -1150 0
1 -1447 1448 0
1 1449 -1310 0
1 1450 1290 0
1 -1450 1438 0
1 -1448 -1449 0
1 1448 -1324 0
1 1308 1449 0
1 1308 1447 0
1 -1308 1451 0
1 1308 1150 0
1 1321 1452 0
1 1323 1453 0
1 1454 -1323 0
1 1454 -1455 0
1 1454 -1451 0
1 1454 -1313 0
1 -1456 1323 0
1 1456 -1457 0
1 1456 -1321 0
1 -1458 -1456 0
1 1458 -1459 0
1 -1460 1329 0
1 -1329 1312 0
1 1461 -1331 0
1 -1461 1462 0
1 1461 1451 0
1 -1463 -1309 0
1 -1463 1451 0
1 1463 -1464 0
1 -1465 1466 0
1 -1309 1467 0
1 1312 1461 0
1 -1312 -1468 0
1 1312 -1463 0
1 1466 -1315 0
1 -1469 1470 0
1 1342 -1471 0
1 -1472 1473 0
1 1470 1469 0
1 -1474 1475 0
1 -1476 -1332 0
1 -1335 1477 0
1 1335 1334 0
1 -1335 1338 0
1 1335 -1478 0
1 1479 1480 0
1 -1481 1472 0
1 1477 -1479 0
1 1478 1161 0
1 -1471 1482 0
1 1483 1484 0
1 1346 1356 0
1 -1346 1477 0
1 -1346 1485 0
1 -1486 -1338 0
1 -1486 1475 0
1 -1487 -1354 0
1 1487 -1488 0
1 -1487 -1477 0
1 1353 1351 0
1 -1353 -1480 0
1 1489 1326 0
1 1337 -1486 0
1 1490 -1348 0
1 -1490 -1480 0
1 -1491 1492 0
1 1493 1492 0
1 1493 1494 0
1 -1493 1485 0
1 1495 -1496 0
1 1495 -1493 0
1 1497 1498 0
1 1497 1493 0
1 1488 1490 0
1 -1496 1499 0
1 1496 -1338 0
1 -1496 -1490 0
1 1500 1488 0
1 -1500 1363 0
1 -1501 -1355 0
1 1501 -1498 0
1 -1498 1494 0
1 -1502 -1503 0
1 1502 1494 0
1 1502 -1504 0
1 1494 -1502 0
1 1505 1506 0
1 -1355 -1507 0
1 1504 -1508 0
1 1509 1510 0
1 -1373 1511 0
1 -1373 -1512 0
1 -1510 -1498 0
1 -1510 -1357 0
1 -1508 1498 0
1 -1513 1512 0
1 1513 -1504 0
1 -1390 1514 0
1 1515 -1516 0
1 -1515 -1517 0
1 1515 -1518 0
1 -1519 1520 0
1 1395 1391 0
1 -1396 -1521 0
1 -1522 -1391 0
1 -1522 -1523 0
1 1524 -1525 0
1 -1517 -1524 0
1 1391 -1395 0
1 -1521 1526 0
1 1521 1396 0
1 -1527 1521 0
1 1414 1528 0
1 -1414 1529 0
1 1530 1523 0
1 1528 -1531 0
1 -1528 1532 0
1 -1529 -1523 0
1 1523 1533 0
1 -1408 -1525 0
1 1534 -1400 0
1 1534 -1269 0
1 -1534 -1535 0
1 1532 1536 0
1 -1532 -1525 0
1 -1537 -1538 0
1 -1537 1539 0
1 1537 1540 0
1 1541 1542 0
1 1541 -1531 0
1 1535 1543 0
1 1535 1532 0
1 -1535 -1408 0
1 -1535 -1415 0
1 -1538 1537 0
1 -1540 1544 0
1 1545 1537 0
1 1545 1546 0
1 -1545 1547 0
1 1544 1548 0
1 -1549 1550 0
1 1536 1400 0
1 1536 -1538 0
1 -1551 1538 0
1 -1551 1540 0
1 1550 1431 0
1 -1422 -1552 0
1 1422 1426 0
1 -1422 1549 0
1 -1433 1436 0
1 -1553 -1554 0
1 1553 -1555 0
1 -1553 1556 0
1 1552 -1548 0
1 1552 1553 0
1 -1552 1422 0
1 1557 1445 0
1 1557 -1446 0
1 -1557 -1433 0
1 1554 1558 0
1 1556 -1433 0
1 -1559 1560 0
1 -1445 1432 0
1 -1446 1443 0
1 1446 -1561 0
1 1562 -1563 0
1 -1562 1564 0
1 1423 -1565 0
1 1566 1567 0
1 1566 -1568 0
1 1569 -1567 0
1 -1569 -1570 0
1 1569 -1553 0
1 -1560 -1571 0
1 -1560 -1570 0
1 -1560 1427 0
1 -1560 -1559 0
1 -1572 1443 0
1 1572 -1564 0
1 -1572 1573 0
1 -1568 1453 0
1 1568 -1574 0
1 -1568 1566 0
1 -1453 1450 0
1 1574 -1568 0
1 1575 1572 0
1 -1564 -1562 0
1 -1564 1576 0
1 1564 1577 0
1 -1577 1564 0
1 1577 1572 0
1 -1457 1575 0
1 1457 1450 0
1 1464 -1578 0
1 -1579 1453 0
1 1579 1462 0
1 1579 -1468 0
1 -1579 -1459 0
1 -1580 -1581 0
1 -1580 -1453 0
1 -1580 -1457 0
1 -1582 1581 0
1 -1583 -1462 0
1 -1583 -1582 0
1 -1455 1456 0
1 1455 1312 0
1 -1455 1451 0
1 1459 1309 0
1 1584 1585 0
1 -1468 -1586 0
1 -1578 1459 0
1 1587 -1455 0
1 -1587 -1588 0
1 1589 -1590 0
1 1591 -1592 0
1 1591 1593 0
1 -1594 -1595 0
1 1596 -1597 0
1 1596 -1598 0
1 -1596 -1599 0
1 1596 -1451 0
1 -1600 -1467 0
1 -1601 -1602 0
1 -1601 1591 0
1 -1601 1603 0
1 -1601 1604 0
1 -1601 -1600 0
1 1605 1470 0
1 -1605 -1595 0
1 1475 -1592 0
1 -1606 1592 0
1 1606 1607 0
1 -1606 -1608 0
1 -1609 -1471 0
1 1609 -1596 0
1 1607 -1610 0
1 1607 1611 0
1 1607 -1594 0
1 -1595 1606 0
1 -1595 -1612 0
1 1595 1613 0
1 1592 1598 0
1 -1592 -1606 0
1 -1482 1471 0
1 1482 1614 0
1 1482 1478 0
1 1611 -1615 0
1 1611 1595 0
1 -1611 -1614 0
1 -1616 1617 0
1 -1608 1499 0
1 -1614 1606 0
1 1614 1473 0
1 1615 1618 0
1 -1615 1609 0
1 1617 1616 0
1 -1617 -1612 0
1 1619 -1612 0
1 -1620 -1337 0
1 -1620 1489 0
1 1621 -1608 0
1 1621 -1614 0
1 -1499 -1498 0
1 -1499 -1622 0
1 1484 1619 0
1 1507 -1504 0
1 -1507 1623 0
1 1624 1625 0
1 -1511 1626 0
1 -1511 -1627 0
1 1628 1480 0
1 1623 1621 0
1 -1623 -1337 0
1 1526 -1527 0
1 -1526 -1629 0
1 1630 1631 0
1 -1630 1523 0
1 -1629 -1531 0
1 1629 -1632 0
1 1633 1531 0
1 1633 -1634 0
1 -1543 1634 0
1 -1543 1635 0
1 -1634 1636 0
1 -1634 -1545 0
1 1637 1638 0
1 1637 -1639 0
1 -1542 -1640 0
1 -1542 -1635 0
1 1539 -1537 0
1 1639 -1641 0
1 1635 1543 0
1 -1635 1634 0
1 -1640 -1543 0
1 -1636 1542 0
1 -1636 1642 0
1 1636 -1523 0
1 1636 -1639 0
1 1643 -1445 0
1 1561 1641 0
1 1561 1644 0
1 -1563 -1644 0
1 1563 1645 0
1 -1641 -1646 0
1 1641 -1555 0
1 1641 1647 0
1 1641 1573 0
1 -1641 1561 0
1 1644 -1643 0
1 -1644 1547 0
1 -1644 1647 0
1 1648 1649 0
1 -1650 -1563 0
1 -1650 -1555 0
1 1650 -1651 0
1 -1573 -1560 0
1 -1570 1641 0
1 1570 -1560 0
1 1647 1652 0
1 1647 -1653 0
1 1654 1655 0
1 -1656 1563 0
1 1656 -1657 0
1 1656 1647 0
1 1652 -1570 0
1 -1652 -1658 0
1 1659 -1567 0
1 -1655 -1660 0
1 1661 1571 0
1 -1661 -1662 0
1 1661 1663 0
1 1661 1664 0
1 1665 -1655 0
1 1665 1585 0
1 -1558 1571 0
1 -1558 -1657 0
1 1558 1647 0
1 -1666 1667 0
1 1666 1647 0
1 1666 1668 0
1 1669 -1583 0
1 -1664 1660 0
1 -1664 1658 0
1 -1585 -1670 0
1 -1585 -1584 0
1 1585 1576 0
1 1585 1665 0
1 -1585 -1660 0
1 1586 -1671 0
1 -1586 -1565 0
1 -1586 1665 0
1 -1565 1590 0
1 -1672 -1566 0
1 1672 -1590 0
1 1673 -1674 0
1 -1673 1675 0
1 -1660 -1673 0
1 1676 -1565 0
1 -1590 1579 0
1 -1677 -1670 0
1 -1678 1565 0
1 1678 -1679 0
1 -1678 -1680 0
1 1670 -1676 0
1 1576 1677 0
1 1576 1676 0
1 -1671 1681 0
1 1671 -1677 0
1 1682 -1683 0
1 1682 1593 0
1 1682 -1588 0
1 -1604 -1601 0
1 -1604 -1578 0
1 -1602 -1670 0
1 1602 1684 0
1 1602 -1685 0
1 1680 1604 0
1 -1684 1686 0
1 -1679 1683 0
1 -1679 1677 0
1 1683 -1602 0
1 1598 -1601 0
1 -1603 -1598 0
1 -1603 1687 0
1 1603 -1680 0
1 -1688 -1689 0
1 1688 1690 0
1 1691 -1612 0
1 1692 -1598 0
1 1685 -1603 0
1 1685 -1693 0
1 1685 1688 0
1 -1687 -1685 0
1 1687 1694 0
1 -1618 -1607 0
1 1695 1689 0
1 -1696 1697 0
1 -1696 1615 0
1 1696 1695 0
1 -1597 -1694 0
1 -1698 -1697 0
1 -1698 1615 0
1 -1699 1624 0
1 -1700 1597 0
1 -1700 1610 0
1 -1701 -1699 0
1 1702 1695 0
1 -1703 1637 0
1 -1704 1705 0
1 1704 -1706 0
1 -1707 -1649 0
1 -1708 -1631 0
1 -1708 -1704 0
1 1709 1705 0
1 -1709 1710 0
1 -1709 1711 0
1 1712 1636 0
1 -1653 -1710 0
1 1653 1713 0
1 1653 1650 0
1 1653 1714 0
1 1649 1715 0
1 -1711 -1704 0
1 1711 -1716 0
1 1717 -1718 0
1 -1710 -1719 0
1 -1710 -1709 0
1 -1720 -1650 0
1 1646 -1567 0
1 1715 1668 0
1 1721 1718 0
1 1713 1721 0
1 1713 1722 0
1 -1658 1723 0
1 1667 -1724 0
1 -1667 -1725 0
1 -1726 1718 0
1 1726 -1727 0
1 1723 1674 0
1 1728 -1729 0
1 1725 -1730 0
1 -1725 -1657 0
1 -1725 1731 0
1 1732 -1733 0
1 -1732 -1661 0
1 1675 1666 0
1 -1675 -1590 0
1 -1734 1735 0
1 -1734 1736 0
1 -1674 -1737 0
1 1674 -1735 0
1 1737 -1738 0
1 -1738 -1739 0
1 1738 1740 0
1 -1741 1682 0
1 1741 -1673 0
1 1742 -1671 0
1 1742 -1741 0
1 -1742 -1735 0
1 -1743 1602 0
1 1743 1576 0
1 -1744 -1745 0
1 -1744 -1736 0
1 -1662 -1746 0
1 -1662 1674 0
1 1747 1748 0
1 -1749 1662 0
1 -1749 -1750 0
1 -1749 1751 0
1 -1752 -1753 0
1 1752 1679 0
1 1754 1681 0
1 -1754 -1755 0
1 -1754 -1756 0
1 1754 1688 0
1 -1755 -1751 0
1 1750 1749 0
1 -1751 -1686 0
1 -1757 1744 0
1 1758 -1743 0
1 -1758 1755 0
1 -1686 -1683 0
1 -1686 -1684 0
1 -1693 -1759 0
1 -1693 -1760 0
1 1761 1759 0
1 -1761 -1760 0
1 -1756 1762 0
1 1756 1763 0
1 1756 -1764 0
1 -1762 -1765 0
1 -1762 1763 0
1 1766 1755 0
1 -1681 1686 0
1 -1767 1685 0
1 -1768 -1761 0
1 -1768 1767 0
1 -1759 1760 0
1 -1769 1710 0
1 1770 1710 0
1 1770 -1721 0
1 -1724 1722 0
1 -1771 -1769 0
1 -1771 -1770 0
1 -1772 -1722 0
1 1773 -1770 0
1 1774 -1775 0
1 1774 -1716 0
1 -1774 -1776 0
1 -1777 1778 0
1 1777 -1776 0
1 1730 1779 0
1 1779 1730 0
1 1779 1780 0
1 -1779 -1725 0
1 1779 -1781 0
1 -1716 1739 0
1 1775 1717 0
1 -1775 -1779 0
1 -1776 -1719 0
1 -1719 -1782 0
1 -1719 1722 0
1 1740 -1780 0
1 -1739 1780 0
1 1739 -1731 0
1 -1745 1744 0
1 -1783 1739 0
1 -1784 -1785 0
1 -1786 1733 0
1 1748 -1785 0
1 -1748 1731 0
1 -1785 -1787 0
1 1788 1748 0
1 -1788 1753 0
1 -1788 1745 0
1 -1789 -1790 0
1 -1791 -1786 0
1 1791 1753 0
1 -1731 1725 0
1 1792 1793 0
1 1792 -1794 0
1 -1792 1758 0
1 1746 1789 0
1 1795 -1790 0
1 1796 -1785 0
1 1796 -1797 0
1 1796 -1798 0
1 -1799 -1748 0
1 1799 -1792 0
1 1794 -1737 0
1 1787 1790 0
1 -1787 1785 0
1 -1787 -1795 0
1 1798 1681 0
1 -1798 -1800 0
1 1798 1801 0
1 1798 -1802 0
1 -1798 -1758 0
1 1803 -1801 0
1 -1803 -1757 0
1 -1803 1798 0
1 1797 1804 0
1 -1805 1806 0
1 1802 -1798 0
1 -1807 -1805 0
1 1807 -1790 0
1 -1807 -1798 0
1 -1782 1781 0
1 1808 1809 0
1 1808 1810 0
1 1811 1810 0
1 1812 -1809 0
1 1812 1785 0
1 1812 -1813 0
1 1813 1808 0
1 1810 -1772 0
1 1793 -1781 0
1 -1814 -1783 0
1 -1815 1816 0
1 1815 1817 0
1 -1818 1791 0
1 -1819 1818 0
1 -1820 1821 0
1 1820 1794 0
1 1822 -1791 0
1 -1822 1820 0
1 -1804 -1823 0
1 1804 -1787 0
1 -1817 1806 0
1 1817 -1804 0
1 1824 -1780 0
1 -1824 -1815 0
